c *********************************
c * Circuit generated by BenCGen
c *
c * Parity_200
c *
c * Ports with 1 gate(s): 1
c * Ports with 2 gate(s): 200
c * Total gates: 201
c *********************************
p cnf 401 801
1 203 0
-1 -203 0
1 -202 0
203 -202 0
-1 -203 202 0
1 2 -204 0
-1 2 204 0
1 -2 204 0
-1 -2 -204 0
3 4 -205 0
-3 4 205 0
3 -4 205 0
-3 -4 -205 0
5 6 -206 0
-5 6 206 0
5 -6 206 0
-5 -6 -206 0
7 8 -207 0
-7 8 207 0
7 -8 207 0
-7 -8 -207 0
9 10 -208 0
-9 10 208 0
9 -10 208 0
-9 -10 -208 0
11 12 -209 0
-11 12 209 0
11 -12 209 0
-11 -12 -209 0
13 14 -210 0
-13 14 210 0
13 -14 210 0
-13 -14 -210 0
15 16 -211 0
-15 16 211 0
15 -16 211 0
-15 -16 -211 0
17 18 -212 0
-17 18 212 0
17 -18 212 0
-17 -18 -212 0
19 20 -213 0
-19 20 213 0
19 -20 213 0
-19 -20 -213 0
21 22 -214 0
-21 22 214 0
21 -22 214 0
-21 -22 -214 0
23 24 -215 0
-23 24 215 0
23 -24 215 0
-23 -24 -215 0
25 26 -216 0
-25 26 216 0
25 -26 216 0
-25 -26 -216 0
27 28 -217 0
-27 28 217 0
27 -28 217 0
-27 -28 -217 0
29 30 -218 0
-29 30 218 0
29 -30 218 0
-29 -30 -218 0
31 32 -219 0
-31 32 219 0
31 -32 219 0
-31 -32 -219 0
33 34 -220 0
-33 34 220 0
33 -34 220 0
-33 -34 -220 0
35 36 -221 0
-35 36 221 0
35 -36 221 0
-35 -36 -221 0
37 38 -222 0
-37 38 222 0
37 -38 222 0
-37 -38 -222 0
39 40 -223 0
-39 40 223 0
39 -40 223 0
-39 -40 -223 0
41 42 -224 0
-41 42 224 0
41 -42 224 0
-41 -42 -224 0
43 44 -225 0
-43 44 225 0
43 -44 225 0
-43 -44 -225 0
45 46 -226 0
-45 46 226 0
45 -46 226 0
-45 -46 -226 0
47 48 -227 0
-47 48 227 0
47 -48 227 0
-47 -48 -227 0
49 50 -228 0
-49 50 228 0
49 -50 228 0
-49 -50 -228 0
51 52 -229 0
-51 52 229 0
51 -52 229 0
-51 -52 -229 0
53 54 -230 0
-53 54 230 0
53 -54 230 0
-53 -54 -230 0
55 56 -231 0
-55 56 231 0
55 -56 231 0
-55 -56 -231 0
57 58 -232 0
-57 58 232 0
57 -58 232 0
-57 -58 -232 0
59 60 -233 0
-59 60 233 0
59 -60 233 0
-59 -60 -233 0
61 62 -234 0
-61 62 234 0
61 -62 234 0
-61 -62 -234 0
63 64 -235 0
-63 64 235 0
63 -64 235 0
-63 -64 -235 0
65 66 -236 0
-65 66 236 0
65 -66 236 0
-65 -66 -236 0
67 68 -237 0
-67 68 237 0
67 -68 237 0
-67 -68 -237 0
69 70 -238 0
-69 70 238 0
69 -70 238 0
-69 -70 -238 0
71 72 -239 0
-71 72 239 0
71 -72 239 0
-71 -72 -239 0
73 74 -240 0
-73 74 240 0
73 -74 240 0
-73 -74 -240 0
75 76 -241 0
-75 76 241 0
75 -76 241 0
-75 -76 -241 0
77 78 -242 0
-77 78 242 0
77 -78 242 0
-77 -78 -242 0
79 80 -243 0
-79 80 243 0
79 -80 243 0
-79 -80 -243 0
81 82 -244 0
-81 82 244 0
81 -82 244 0
-81 -82 -244 0
83 84 -245 0
-83 84 245 0
83 -84 245 0
-83 -84 -245 0
85 86 -246 0
-85 86 246 0
85 -86 246 0
-85 -86 -246 0
87 88 -247 0
-87 88 247 0
87 -88 247 0
-87 -88 -247 0
89 90 -248 0
-89 90 248 0
89 -90 248 0
-89 -90 -248 0
91 92 -249 0
-91 92 249 0
91 -92 249 0
-91 -92 -249 0
93 94 -250 0
-93 94 250 0
93 -94 250 0
-93 -94 -250 0
95 96 -251 0
-95 96 251 0
95 -96 251 0
-95 -96 -251 0
97 98 -252 0
-97 98 252 0
97 -98 252 0
-97 -98 -252 0
99 100 -253 0
-99 100 253 0
99 -100 253 0
-99 -100 -253 0
101 102 -254 0
-101 102 254 0
101 -102 254 0
-101 -102 -254 0
103 104 -255 0
-103 104 255 0
103 -104 255 0
-103 -104 -255 0
105 106 -256 0
-105 106 256 0
105 -106 256 0
-105 -106 -256 0
107 108 -257 0
-107 108 257 0
107 -108 257 0
-107 -108 -257 0
109 110 -258 0
-109 110 258 0
109 -110 258 0
-109 -110 -258 0
111 112 -259 0
-111 112 259 0
111 -112 259 0
-111 -112 -259 0
113 114 -260 0
-113 114 260 0
113 -114 260 0
-113 -114 -260 0
115 116 -261 0
-115 116 261 0
115 -116 261 0
-115 -116 -261 0
117 118 -262 0
-117 118 262 0
117 -118 262 0
-117 -118 -262 0
119 120 -263 0
-119 120 263 0
119 -120 263 0
-119 -120 -263 0
121 122 -264 0
-121 122 264 0
121 -122 264 0
-121 -122 -264 0
123 124 -265 0
-123 124 265 0
123 -124 265 0
-123 -124 -265 0
125 126 -266 0
-125 126 266 0
125 -126 266 0
-125 -126 -266 0
127 128 -267 0
-127 128 267 0
127 -128 267 0
-127 -128 -267 0
129 130 -268 0
-129 130 268 0
129 -130 268 0
-129 -130 -268 0
131 132 -269 0
-131 132 269 0
131 -132 269 0
-131 -132 -269 0
133 134 -270 0
-133 134 270 0
133 -134 270 0
-133 -134 -270 0
135 136 -271 0
-135 136 271 0
135 -136 271 0
-135 -136 -271 0
137 138 -272 0
-137 138 272 0
137 -138 272 0
-137 -138 -272 0
139 140 -273 0
-139 140 273 0
139 -140 273 0
-139 -140 -273 0
141 142 -274 0
-141 142 274 0
141 -142 274 0
-141 -142 -274 0
143 144 -275 0
-143 144 275 0
143 -144 275 0
-143 -144 -275 0
145 146 -276 0
-145 146 276 0
145 -146 276 0
-145 -146 -276 0
147 148 -277 0
-147 148 277 0
147 -148 277 0
-147 -148 -277 0
149 150 -278 0
-149 150 278 0
149 -150 278 0
-149 -150 -278 0
151 152 -279 0
-151 152 279 0
151 -152 279 0
-151 -152 -279 0
153 154 -280 0
-153 154 280 0
153 -154 280 0
-153 -154 -280 0
155 156 -281 0
-155 156 281 0
155 -156 281 0
-155 -156 -281 0
157 158 -282 0
-157 158 282 0
157 -158 282 0
-157 -158 -282 0
159 160 -283 0
-159 160 283 0
159 -160 283 0
-159 -160 -283 0
161 162 -284 0
-161 162 284 0
161 -162 284 0
-161 -162 -284 0
163 164 -285 0
-163 164 285 0
163 -164 285 0
-163 -164 -285 0
165 166 -286 0
-165 166 286 0
165 -166 286 0
-165 -166 -286 0
167 168 -287 0
-167 168 287 0
167 -168 287 0
-167 -168 -287 0
169 170 -288 0
-169 170 288 0
169 -170 288 0
-169 -170 -288 0
171 172 -289 0
-171 172 289 0
171 -172 289 0
-171 -172 -289 0
173 174 -290 0
-173 174 290 0
173 -174 290 0
-173 -174 -290 0
175 176 -291 0
-175 176 291 0
175 -176 291 0
-175 -176 -291 0
177 178 -292 0
-177 178 292 0
177 -178 292 0
-177 -178 -292 0
179 180 -293 0
-179 180 293 0
179 -180 293 0
-179 -180 -293 0
181 182 -294 0
-181 182 294 0
181 -182 294 0
-181 -182 -294 0
183 184 -295 0
-183 184 295 0
183 -184 295 0
-183 -184 -295 0
185 186 -296 0
-185 186 296 0
185 -186 296 0
-185 -186 -296 0
187 188 -297 0
-187 188 297 0
187 -188 297 0
-187 -188 -297 0
189 190 -298 0
-189 190 298 0
189 -190 298 0
-189 -190 -298 0
191 192 -299 0
-191 192 299 0
191 -192 299 0
-191 -192 -299 0
193 194 -300 0
-193 194 300 0
193 -194 300 0
-193 -194 -300 0
195 196 -301 0
-195 196 301 0
195 -196 301 0
-195 -196 -301 0
197 198 -302 0
-197 198 302 0
197 -198 302 0
-197 -198 -302 0
199 200 -303 0
-199 200 303 0
199 -200 303 0
-199 -200 -303 0
204 205 -304 0
-204 205 304 0
204 -205 304 0
-204 -205 -304 0
206 207 -305 0
-206 207 305 0
206 -207 305 0
-206 -207 -305 0
208 209 -306 0
-208 209 306 0
208 -209 306 0
-208 -209 -306 0
210 211 -307 0
-210 211 307 0
210 -211 307 0
-210 -211 -307 0
212 213 -308 0
-212 213 308 0
212 -213 308 0
-212 -213 -308 0
214 215 -309 0
-214 215 309 0
214 -215 309 0
-214 -215 -309 0
216 217 -310 0
-216 217 310 0
216 -217 310 0
-216 -217 -310 0
218 219 -311 0
-218 219 311 0
218 -219 311 0
-218 -219 -311 0
220 221 -312 0
-220 221 312 0
220 -221 312 0
-220 -221 -312 0
222 223 -313 0
-222 223 313 0
222 -223 313 0
-222 -223 -313 0
224 225 -314 0
-224 225 314 0
224 -225 314 0
-224 -225 -314 0
226 227 -315 0
-226 227 315 0
226 -227 315 0
-226 -227 -315 0
228 229 -316 0
-228 229 316 0
228 -229 316 0
-228 -229 -316 0
230 231 -317 0
-230 231 317 0
230 -231 317 0
-230 -231 -317 0
232 233 -318 0
-232 233 318 0
232 -233 318 0
-232 -233 -318 0
234 235 -319 0
-234 235 319 0
234 -235 319 0
-234 -235 -319 0
236 237 -320 0
-236 237 320 0
236 -237 320 0
-236 -237 -320 0
238 239 -321 0
-238 239 321 0
238 -239 321 0
-238 -239 -321 0
240 241 -322 0
-240 241 322 0
240 -241 322 0
-240 -241 -322 0
242 243 -323 0
-242 243 323 0
242 -243 323 0
-242 -243 -323 0
244 245 -324 0
-244 245 324 0
244 -245 324 0
-244 -245 -324 0
246 247 -325 0
-246 247 325 0
246 -247 325 0
-246 -247 -325 0
248 249 -326 0
-248 249 326 0
248 -249 326 0
-248 -249 -326 0
250 251 -327 0
-250 251 327 0
250 -251 327 0
-250 -251 -327 0
252 253 -328 0
-252 253 328 0
252 -253 328 0
-252 -253 -328 0
254 255 -329 0
-254 255 329 0
254 -255 329 0
-254 -255 -329 0
256 257 -330 0
-256 257 330 0
256 -257 330 0
-256 -257 -330 0
258 259 -331 0
-258 259 331 0
258 -259 331 0
-258 -259 -331 0
260 261 -332 0
-260 261 332 0
260 -261 332 0
-260 -261 -332 0
262 263 -333 0
-262 263 333 0
262 -263 333 0
-262 -263 -333 0
264 265 -334 0
-264 265 334 0
264 -265 334 0
-264 -265 -334 0
266 267 -335 0
-266 267 335 0
266 -267 335 0
-266 -267 -335 0
268 269 -336 0
-268 269 336 0
268 -269 336 0
-268 -269 -336 0
270 271 -337 0
-270 271 337 0
270 -271 337 0
-270 -271 -337 0
272 273 -338 0
-272 273 338 0
272 -273 338 0
-272 -273 -338 0
274 275 -339 0
-274 275 339 0
274 -275 339 0
-274 -275 -339 0
276 277 -340 0
-276 277 340 0
276 -277 340 0
-276 -277 -340 0
278 279 -341 0
-278 279 341 0
278 -279 341 0
-278 -279 -341 0
280 281 -342 0
-280 281 342 0
280 -281 342 0
-280 -281 -342 0
282 283 -343 0
-282 283 343 0
282 -283 343 0
-282 -283 -343 0
284 285 -344 0
-284 285 344 0
284 -285 344 0
-284 -285 -344 0
286 287 -345 0
-286 287 345 0
286 -287 345 0
-286 -287 -345 0
288 289 -346 0
-288 289 346 0
288 -289 346 0
-288 -289 -346 0
290 291 -347 0
-290 291 347 0
290 -291 347 0
-290 -291 -347 0
292 293 -348 0
-292 293 348 0
292 -293 348 0
-292 -293 -348 0
294 295 -349 0
-294 295 349 0
294 -295 349 0
-294 -295 -349 0
296 297 -350 0
-296 297 350 0
296 -297 350 0
-296 -297 -350 0
298 299 -351 0
-298 299 351 0
298 -299 351 0
-298 -299 -351 0
300 301 -352 0
-300 301 352 0
300 -301 352 0
-300 -301 -352 0
302 303 -353 0
-302 303 353 0
302 -303 353 0
-302 -303 -353 0
304 305 -354 0
-304 305 354 0
304 -305 354 0
-304 -305 -354 0
306 307 -355 0
-306 307 355 0
306 -307 355 0
-306 -307 -355 0
308 309 -356 0
-308 309 356 0
308 -309 356 0
-308 -309 -356 0
310 311 -357 0
-310 311 357 0
310 -311 357 0
-310 -311 -357 0
312 313 -358 0
-312 313 358 0
312 -313 358 0
-312 -313 -358 0
314 315 -359 0
-314 315 359 0
314 -315 359 0
-314 -315 -359 0
316 317 -360 0
-316 317 360 0
316 -317 360 0
-316 -317 -360 0
318 319 -361 0
-318 319 361 0
318 -319 361 0
-318 -319 -361 0
320 321 -362 0
-320 321 362 0
320 -321 362 0
-320 -321 -362 0
322 323 -363 0
-322 323 363 0
322 -323 363 0
-322 -323 -363 0
324 325 -364 0
-324 325 364 0
324 -325 364 0
-324 -325 -364 0
326 327 -365 0
-326 327 365 0
326 -327 365 0
-326 -327 -365 0
328 329 -366 0
-328 329 366 0
328 -329 366 0
-328 -329 -366 0
330 331 -367 0
-330 331 367 0
330 -331 367 0
-330 -331 -367 0
332 333 -368 0
-332 333 368 0
332 -333 368 0
-332 -333 -368 0
334 335 -369 0
-334 335 369 0
334 -335 369 0
-334 -335 -369 0
336 337 -370 0
-336 337 370 0
336 -337 370 0
-336 -337 -370 0
338 339 -371 0
-338 339 371 0
338 -339 371 0
-338 -339 -371 0
340 341 -372 0
-340 341 372 0
340 -341 372 0
-340 -341 -372 0
342 343 -373 0
-342 343 373 0
342 -343 373 0
-342 -343 -373 0
344 345 -374 0
-344 345 374 0
344 -345 374 0
-344 -345 -374 0
346 347 -375 0
-346 347 375 0
346 -347 375 0
-346 -347 -375 0
348 349 -376 0
-348 349 376 0
348 -349 376 0
-348 -349 -376 0
350 351 -377 0
-350 351 377 0
350 -351 377 0
-350 -351 -377 0
352 353 -378 0
-352 353 378 0
352 -353 378 0
-352 -353 -378 0
354 355 -379 0
-354 355 379 0
354 -355 379 0
-354 -355 -379 0
356 357 -380 0
-356 357 380 0
356 -357 380 0
-356 -357 -380 0
358 359 -381 0
-358 359 381 0
358 -359 381 0
-358 -359 -381 0
360 361 -382 0
-360 361 382 0
360 -361 382 0
-360 -361 -382 0
362 363 -383 0
-362 363 383 0
362 -363 383 0
-362 -363 -383 0
364 365 -384 0
-364 365 384 0
364 -365 384 0
-364 -365 -384 0
366 367 -385 0
-366 367 385 0
366 -367 385 0
-366 -367 -385 0
368 369 -386 0
-368 369 386 0
368 -369 386 0
-368 -369 -386 0
370 371 -387 0
-370 371 387 0
370 -371 387 0
-370 -371 -387 0
372 373 -388 0
-372 373 388 0
372 -373 388 0
-372 -373 -388 0
374 375 -389 0
-374 375 389 0
374 -375 389 0
-374 -375 -389 0
376 377 -390 0
-376 377 390 0
376 -377 390 0
-376 -377 -390 0
379 380 -391 0
-379 380 391 0
379 -380 391 0
-379 -380 -391 0
381 382 -392 0
-381 382 392 0
381 -382 392 0
-381 -382 -392 0
383 384 -393 0
-383 384 393 0
383 -384 393 0
-383 -384 -393 0
385 386 -394 0
-385 386 394 0
385 -386 394 0
-385 -386 -394 0
387 388 -395 0
-387 388 395 0
387 -388 395 0
-387 -388 -395 0
389 390 -396 0
-389 390 396 0
389 -390 396 0
-389 -390 -396 0
391 392 -397 0
-391 392 397 0
391 -392 397 0
-391 -392 -397 0
393 394 -398 0
-393 394 398 0
393 -394 398 0
-393 -394 -398 0
395 396 -399 0
-395 396 399 0
395 -396 399 0
-395 -396 -399 0
397 398 -400 0
-397 398 400 0
397 -398 400 0
-397 -398 -400 0
399 378 -401 0
-399 378 401 0
399 -378 401 0
-399 -378 -401 0
400 401 -201 0
-400 401 201 0
400 -401 201 0
-400 -401 -201 0
